job_count = 12 ;
duration = [|16, 9|16, 4|4, 6|9, 1|4, 1|4, 6|15, 9|9, 4|13, 7|2, 1|19, 6|2, 3|] ;
machine_count = 2 ;
cost = [|11, 20|15, 28|15, 29|13, 37|18, 21|13, 24|10, 34|19, 38|14, 34|12, 39|13, 38|10, 39|] ;
deadline = [30, 30, 30, 30, 30, 30, 30, 30, 30, 30, 30, 30] ;
release = [0, 0, 0, 0, 0, 0, 0, 0, 0, 0, 0, 0] ;
resource = [|3, 3|5, 5|7, 7|6, 6|9, 9|4, 4|1, 1|7, 7|5, 5|8, 8|9, 9|9, 9|] ;
capacities = [10, 10] ;
